outputs/case_316.model.txt
capital_adequacy_ratio = 100
net_worth_ratio = 5
foreign_investment_amount = 6000000
net_worth = 1000000
total_funds = 40000000/3
level_4_measures_executed = False
improvement_plan_executed = False
level_3_measures_executed = False
improvement_plan_submitted = False
internal_control_system_established = True
internal_handling_system_executed = True
internal_handling_system_established = True
internal_control_system_executed = True
foreign_investment_exclusion_valid = True
internal_control_and_handling_ok = True
internal_handling_established = True
approved_foreign_currency_domestic_securities_amount = 1
same_related_enterprise_defined = True
approved_foreign_insurance_related_investment_amount = 1
foreign_investment_within_limit = True
approved_other_foreign_investment_amount = 1
same_person_defined = True
capital_level_2_measures_executed = False
capital_level = 0
internal_control_executed = True
loan_and_other_transaction_limit_compliance = True
same_related_person_defined = True
penalty = False
related_person_definition_valid = True
internal_handling_executed = True
internal_control_established = True
loan_and_other_transaction_within_limit = True
capital_level_4_measures_executed = False
capital_level_3_measures_executed = False
approved_foreign_currency_non_investment_amount = 1